NAME : POMORSKIE-n10
COMMENT : Auto generated by mgrVRP
TYPE : CVRP
DIMENSION : 10
EDGE_WEIGHT_TYPE : EUC_2D
CAPACITY : 200.0
NODE_COORD_SECTION
1 54.3545363227419 17.863579446736157
2 53.92106277196435 17.874309643220204
3 53.50278316677151 17.100756181113532
4 54.22278125080543 19.149831881485945
5 53.53124599472733 17.173326255563286
6 54.612555765788606 17.82203356876284
7 53.88179349503476 19.063355188205676
8 53.87745872060067 17.016039013314234
9 53.822669710438895 17.694611543728293
10 53.868418127743595 18.728413101293768
11 53.61911303510304 17.149359713903944
DEMAND_SECTION
1 0
2 33.0
3 51.0
4 32.0
5 54.0
6 32.0
7 45.0
8 55.0
9 37.0
10 33.0
11 40.0
DEPOT_SECTION
1
-1
EOF
